\ LP format - for model browsing. Use MPS format to capture full model detail.
Minimize
  0 p + 0 c + b_t_0
Subject To
 GC0: b_t_0 = 1 -> 2.622002563540204 p - c <= 1.311001281770102
 GC1: b_t_0 = 0 -> 2.622002563540204 p - c >= 1.311101281770102
Bounds
 0.5 <= p <= 0.7
 1 <= c <= 2
Binaries
 b_t_0
End
